<?xml version="1.0" encoding="UTF-8"?><osil xmlns="os.optimizationservices.org"   xmlns:xsi="http://www.w3.org/2001/XMLSchema-instance" xsi:schemaLocation="os.optimizationservices.org http://www.optimizationservices.org/schemas/2.0/OSiL.xsd" ><instanceHeader><name>q_50_0_25_5</name></instanceHeader><instanceData><variables numberOfVariables="50"><var name="x1" ub="1"/><var name="x2" ub="1"/><var name="x3" ub="1"/><var name="x4" ub="1"/><var name="x5" ub="1"/><var name="x6" ub="1"/><var name="x7" ub="1"/><var name="x8" ub="1"/><var name="x9" ub="1"/><var name="x10" ub="1"/><var name="x11" ub="1"/><var name="x12" ub="1"/><var name="x13" ub="1"/><var name="x14" ub="1"/><var name="x15" ub="1"/><var name="x16" ub="1"/><var name="x17" ub="1"/><var name="x18" ub="1"/><var name="x19" ub="1"/><var name="x20" ub="1"/><var name="x21" ub="1"/><var name="x22" ub="1"/><var name="x23" ub="1"/><var name="x24" ub="1"/><var name="x25" ub="1"/><var name="x26" ub="1"/><var name="x27" ub="1"/><var name="x28" ub="1"/><var name="x29" ub="1"/><var name="x30" ub="1"/><var name="x31" ub="1"/><var name="x32" ub="1"/><var name="x33" ub="1"/><var name="x34" ub="1"/><var name="x35" ub="1"/><var name="x36" ub="1"/><var name="x37" ub="1"/><var name="x38" ub="1"/><var name="x39" ub="1"/><var name="x40" ub="1"/><var name="x41" ub="1"/><var name="x42" ub="1"/><var name="x43" ub="1"/><var name="x44" ub="1"/><var name="x45" ub="1"/><var name="x46" ub="1"/><var name="x47" ub="1"/><var name="x48" ub="1"/><var name="x49" ub="1"/><var name="x50" ub="1"/></variables><objectives numberOfObjectives="1"><obj maxOrMin="min" name="defObj_x51" numberOfObjCoef="50"><coef idx="0">-.3659</coef><coef idx="1">-.9626</coef><coef idx="2">.3125</coef><coef idx="3">-.9484</coef><coef idx="4">-5.4e-3</coef><coef idx="5">-.6158</coef><coef idx="6">.9396</coef><coef idx="7">-.1757</coef><coef idx="8">-.7912</coef><coef idx="9">-.95</coef><coef idx="10">.4887</coef><coef idx="11">.7019</coef><coef idx="12">.6019</coef><coef idx="13">-.8171</coef><coef idx="14">.2866</coef><coef idx="15">.6855</coef><coef idx="16">-.8868</coef><coef idx="17">.724</coef><coef idx="18">.4656</coef><coef idx="19">-.9901</coef><coef idx="20">.4581</coef><coef idx="21">-.999</coef><coef idx="22">.2168</coef><coef idx="23">-.3081</coef><coef idx="24">-.3446</coef><coef idx="25">-.8796</coef><coef idx="26">-7.82e-2</coef><coef idx="27">.6861</coef><coef idx="28">-.2288</coef><coef idx="29">.3206</coef><coef idx="30">-.1097</coef><coef idx="31">-.9174</coef><coef idx="32">.483</coef><coef idx="33">-.9674</coef><coef idx="34">.201</coef><coef idx="35">.3907</coef><coef idx="36">.5618</coef><coef idx="37">.5785</coef><coef idx="38">.6697</coef><coef idx="39">.1999</coef><coef idx="40">.1005</coef><coef idx="41">-.1216</coef><coef idx="42">.597</coef><coef idx="43">.8168</coef><coef idx="44">-.6426</coef><coef idx="45">-.517</coef><coef idx="46">.1262</coef><coef idx="47">.5641</coef><coef idx="48">.1047</coef><coef idx="49">.8031</coef></obj></objectives><quadraticCoefficients  numberOfQuadraticTerms="318" ><qTerm  idx="-1"  idxOne="0"  idxTwo="4"  coef="-1.4728"/><qTerm  idx="-1"  idxOne="0"  idxTwo="5"  coef="-.4877"/><qTerm  idx="-1"  idxOne="0"  idxTwo="8"  coef="-1.8728"/><qTerm  idx="-1"  idxOne="0"  idxTwo="32"  coef="1.7595"/><qTerm  idx="-1"  idxOne="1"  idxTwo="4"  coef="-1.3391"/><qTerm  idx="-1"  idxOne="1"  idxTwo="5"  coef=".2897"/><qTerm  idx="-1"  idxOne="1"  idxTwo="7"  coef="-.633"/><qTerm  idx="-1"  idxOne="1"  idxTwo="9"  coef="-1.7998"/><qTerm  idx="-1"  idxOne="1"  idxTwo="13"  coef=".6372"/><qTerm  idx="-1"  idxOne="1"  idxTwo="16"  coef="-1.5966"/><qTerm  idx="-1"  idxOne="1"  idxTwo="18"  coef=".8412"/><qTerm  idx="-1"  idxOne="1"  idxTwo="19"  coef="-1.3269"/><qTerm  idx="-1"  idxOne="1"  idxTwo="20"  coef="-1.7693"/><qTerm  idx="-1"  idxOne="1"  idxTwo="22"  coef="-1.0121"/><qTerm  idx="-1"  idxOne="1"  idxTwo="26"  coef=".6401"/><qTerm  idx="-1"  idxOne="1"  idxTwo="29"  coef=".7424"/><qTerm  idx="-1"  idxOne="1"  idxTwo="30"  coef="-1.5659"/><qTerm  idx="-1"  idxOne="1"  idxTwo="31"  coef="-1.7447"/><qTerm  idx="-1"  idxOne="1"  idxTwo="36"  coef="1.7187"/><qTerm  idx="-1"  idxOne="1"  idxTwo="44"  coef="1.1896"/><qTerm  idx="-1"  idxOne="1"  idxTwo="47"  coef="1.6917"/><qTerm  idx="-1"  idxOne="2"  idxTwo="15"  coef=".6779"/><qTerm  idx="-1"  idxOne="2"  idxTwo="22"  coef="-1.9678"/><qTerm  idx="-1"  idxOne="2"  idxTwo="23"  coef=".9888"/><qTerm  idx="-1"  idxOne="2"  idxTwo="30"  coef="-1.3431"/><qTerm  idx="-1"  idxOne="2"  idxTwo="32"  coef="1.9749"/><qTerm  idx="-1"  idxOne="2"  idxTwo="37"  coef="1.8404"/><qTerm  idx="-1"  idxOne="2"  idxTwo="42"  coef="-.4115"/><qTerm  idx="-1"  idxOne="2"  idxTwo="43"  coef="-.3527"/><qTerm  idx="-1"  idxOne="2"  idxTwo="48"  coef="-1.8878"/><qTerm  idx="-1"  idxOne="3"  idxTwo="8"  coef="-.5071"/><qTerm  idx="-1"  idxOne="3"  idxTwo="13"  coef=".3472"/><qTerm  idx="-1"  idxOne="3"  idxTwo="14"  coef=".5239"/><qTerm  idx="-1"  idxOne="3"  idxTwo="15"  coef="-8.09e-2"/><qTerm  idx="-1"  idxOne="3"  idxTwo="19"  coef=".2041"/><qTerm  idx="-1"  idxOne="3"  idxTwo="43"  coef="1.4729"/><qTerm  idx="-1"  idxOne="3"  idxTwo="46"  coef=".174"/><qTerm  idx="-1"  idxOne="3"  idxTwo="48"  coef="1.844"/><qTerm  idx="-1"  idxOne="3"  idxTwo="49"  coef=".1209"/><qTerm  idx="-1"  idxOne="4"  idxTwo="7"  coef="1.312"/><qTerm  idx="-1"  idxOne="4"  idxTwo="8"  coef="-1.0681"/><qTerm  idx="-1"  idxOne="4"  idxTwo="9"  coef="-1.5801"/><qTerm  idx="-1"  idxOne="4"  idxTwo="21"  coef="8.24e-2"/><qTerm  idx="-1"  idxOne="4"  idxTwo="25"  coef="-.6584"/><qTerm  idx="-1"  idxOne="4"  idxTwo="27"  coef="-1.8273"/><qTerm  idx="-1"  idxOne="4"  idxTwo="33"  coef="1.9656"/><qTerm  idx="-1"  idxOne="4"  idxTwo="35"  coef="-.7339"/><qTerm  idx="-1"  idxOne="4"  idxTwo="37"  coef="1.9937"/><qTerm  idx="-1"  idxOne="4"  idxTwo="40"  coef=".744"/><qTerm  idx="-1"  idxOne="4"  idxTwo="43"  coef="-5.64e-2"/><qTerm  idx="-1"  idxOne="4"  idxTwo="44"  coef=".2327"/><qTerm  idx="-1"  idxOne="4"  idxTwo="49"  coef="-1.2097"/><qTerm  idx="-1"  idxOne="5"  idxTwo="6"  coef="-1.665"/><qTerm  idx="-1"  idxOne="5"  idxTwo="12"  coef="-.3089"/><qTerm  idx="-1"  idxOne="5"  idxTwo="20"  coef="-.4508"/><qTerm  idx="-1"  idxOne="5"  idxTwo="31"  coef="1.7183"/><qTerm  idx="-1"  idxOne="5"  idxTwo="34"  coef="1.6667"/><qTerm  idx="-1"  idxOne="5"  idxTwo="37"  coef="-1.4549"/><qTerm  idx="-1"  idxOne="5"  idxTwo="38"  coef="-1.1408"/><qTerm  idx="-1"  idxOne="5"  idxTwo="40"  coef=".5341"/><qTerm  idx="-1"  idxOne="5"  idxTwo="45"  coef="-.99"/><qTerm  idx="-1"  idxOne="6"  idxTwo="7"  coef="1.0763"/><qTerm  idx="-1"  idxOne="6"  idxTwo="10"  coef="-1.0097"/><qTerm  idx="-1"  idxOne="6"  idxTwo="16"  coef=".6349"/><qTerm  idx="-1"  idxOne="6"  idxTwo="18"  coef="1.0746"/><qTerm  idx="-1"  idxOne="6"  idxTwo="25"  coef="1.8108"/><qTerm  idx="-1"  idxOne="6"  idxTwo="33"  coef=".6107"/><qTerm  idx="-1"  idxOne="6"  idxTwo="34"  coef="-.9218"/><qTerm  idx="-1"  idxOne="6"  idxTwo="37"  coef="1.4332"/><qTerm  idx="-1"  idxOne="6"  idxTwo="45"  coef="-.5085"/><qTerm  idx="-1"  idxOne="7"  idxTwo="7"  coef="-1.8844"/><qTerm  idx="-1"  idxOne="7"  idxTwo="9"  coef="-.5203"/><qTerm  idx="-1"  idxOne="7"  idxTwo="21"  coef="-1.4706"/><qTerm  idx="-1"  idxOne="7"  idxTwo="23"  coef="-.1523"/><qTerm  idx="-1"  idxOne="7"  idxTwo="36"  coef="-.7575"/><qTerm  idx="-1"  idxOne="7"  idxTwo="43"  coef=".3194"/><qTerm  idx="-1"  idxOne="7"  idxTwo="45"  coef=".5533"/><qTerm  idx="-1"  idxOne="8"  idxTwo="8"  coef="-6.12e-2"/><qTerm  idx="-1"  idxOne="8"  idxTwo="9"  coef="1.6291"/><qTerm  idx="-1"  idxOne="8"  idxTwo="12"  coef="1.2676"/><qTerm  idx="-1"  idxOne="8"  idxTwo="14"  coef="1.6663"/><qTerm  idx="-1"  idxOne="8"  idxTwo="22"  coef="-3.58e-2"/><qTerm  idx="-1"  idxOne="8"  idxTwo="25"  coef=".5424"/><qTerm  idx="-1"  idxOne="8"  idxTwo="27"  coef="1.1168"/><qTerm  idx="-1"  idxOne="8"  idxTwo="29"  coef="-1.9446"/><qTerm  idx="-1"  idxOne="8"  idxTwo="33"  coef=".1653"/><qTerm  idx="-1"  idxOne="8"  idxTwo="36"  coef="-.5165"/><qTerm  idx="-1"  idxOne="8"  idxTwo="37"  coef="1.0653"/><qTerm  idx="-1"  idxOne="8"  idxTwo="39"  coef="-.597"/><qTerm  idx="-1"  idxOne="8"  idxTwo="40"  coef="-.5101"/><qTerm  idx="-1"  idxOne="8"  idxTwo="41"  coef=".3999"/><qTerm  idx="-1"  idxOne="8"  idxTwo="43"  coef="-1.9579"/><qTerm  idx="-1"  idxOne="8"  idxTwo="47"  coef="-.9682"/><qTerm  idx="-1"  idxOne="8"  idxTwo="48"  coef="1.726"/><qTerm  idx="-1"  idxOne="9"  idxTwo="11"  coef="1.1228"/><qTerm  idx="-1"  idxOne="9"  idxTwo="31"  coef="-1.8377"/><qTerm  idx="-1"  idxOne="9"  idxTwo="33"  coef=".9313"/><qTerm  idx="-1"  idxOne="9"  idxTwo="34"  coef="-1.9706"/><qTerm  idx="-1"  idxOne="9"  idxTwo="35"  coef=".3702"/><qTerm  idx="-1"  idxOne="9"  idxTwo="38"  coef="-2.25e-2"/><qTerm  idx="-1"  idxOne="9"  idxTwo="43"  coef="5.29e-2"/><qTerm  idx="-1"  idxOne="9"  idxTwo="44"  coef="1.4788"/><qTerm  idx="-1"  idxOne="9"  idxTwo="48"  coef="-1.5155"/><qTerm  idx="-1"  idxOne="10"  idxTwo="12"  coef="1.4433"/><qTerm  idx="-1"  idxOne="10"  idxTwo="18"  coef=".8067"/><qTerm  idx="-1"  idxOne="10"  idxTwo="19"  coef="1.914"/><qTerm  idx="-1"  idxOne="10"  idxTwo="22"  coef="-1.2214"/><qTerm  idx="-1"  idxOne="10"  idxTwo="32"  coef="1.8848"/><qTerm  idx="-1"  idxOne="10"  idxTwo="33"  coef="1.5311"/><qTerm  idx="-1"  idxOne="10"  idxTwo="35"  coef="-.7381"/><qTerm  idx="-1"  idxOne="10"  idxTwo="36"  coef=".7287"/><qTerm  idx="-1"  idxOne="10"  idxTwo="43"  coef="-1.7187"/><qTerm  idx="-1"  idxOne="10"  idxTwo="44"  coef=".9884"/><qTerm  idx="-1"  idxOne="11"  idxTwo="21"  coef="1.1036"/><qTerm  idx="-1"  idxOne="11"  idxTwo="27"  coef="1.0649"/><qTerm  idx="-1"  idxOne="11"  idxTwo="28"  coef="-1.5837"/><qTerm  idx="-1"  idxOne="11"  idxTwo="31"  coef=".2556"/><qTerm  idx="-1"  idxOne="11"  idxTwo="37"  coef="-.4002"/><qTerm  idx="-1"  idxOne="11"  idxTwo="41"  coef=".1486"/><qTerm  idx="-1"  idxOne="11"  idxTwo="42"  coef=".7453"/><qTerm  idx="-1"  idxOne="11"  idxTwo="44"  coef="-.576"/><qTerm  idx="-1"  idxOne="11"  idxTwo="45"  coef="-1.0893"/><qTerm  idx="-1"  idxOne="12"  idxTwo="16"  coef="-.2603"/><qTerm  idx="-1"  idxOne="12"  idxTwo="18"  coef="1.8219"/><qTerm  idx="-1"  idxOne="12"  idxTwo="20"  coef="1.1355"/><qTerm  idx="-1"  idxOne="12"  idxTwo="21"  coef="1.1382"/><qTerm  idx="-1"  idxOne="12"  idxTwo="22"  coef="-1.606"/><qTerm  idx="-1"  idxOne="12"  idxTwo="24"  coef="-.9734"/><qTerm  idx="-1"  idxOne="12"  idxTwo="33"  coef="-1.4896"/><qTerm  idx="-1"  idxOne="12"  idxTwo="35"  coef="-1.4471"/><qTerm  idx="-1"  idxOne="12"  idxTwo="36"  coef="1.0298"/><qTerm  idx="-1"  idxOne="12"  idxTwo="41"  coef="1.0862"/><qTerm  idx="-1"  idxOne="12"  idxTwo="45"  coef="-.7985"/><qTerm  idx="-1"  idxOne="12"  idxTwo="48"  coef=".5275"/><qTerm  idx="-1"  idxOne="13"  idxTwo="14"  coef="1.1081"/><qTerm  idx="-1"  idxOne="13"  idxTwo="20"  coef="1.7269"/><qTerm  idx="-1"  idxOne="13"  idxTwo="24"  coef=".1757"/><qTerm  idx="-1"  idxOne="13"  idxTwo="25"  coef="-1.2962"/><qTerm  idx="-1"  idxOne="13"  idxTwo="26"  coef="-1.8121"/><qTerm  idx="-1"  idxOne="13"  idxTwo="27"  coef="-4.85e-2"/><qTerm  idx="-1"  idxOne="13"  idxTwo="29"  coef="-.8134"/><qTerm  idx="-1"  idxOne="13"  idxTwo="34"  coef="1.1133"/><qTerm  idx="-1"  idxOne="13"  idxTwo="46"  coef="1.1256"/><qTerm  idx="-1"  idxOne="14"  idxTwo="18"  coef="-.8736"/><qTerm  idx="-1"  idxOne="14"  idxTwo="24"  coef="1.016"/><qTerm  idx="-1"  idxOne="14"  idxTwo="33"  coef="-1.6727"/><qTerm  idx="-1"  idxOne="14"  idxTwo="36"  coef="-1.6062"/><qTerm  idx="-1"  idxOne="14"  idxTwo="37"  coef=".3451"/><qTerm  idx="-1"  idxOne="14"  idxTwo="39"  coef=".3139"/><qTerm  idx="-1"  idxOne="14"  idxTwo="41"  coef="-.5462"/><qTerm  idx="-1"  idxOne="14"  idxTwo="43"  coef="1.853"/><qTerm  idx="-1"  idxOne="14"  idxTwo="47"  coef="1.7576"/><qTerm  idx="-1"  idxOne="15"  idxTwo="15"  coef="-.7964"/><qTerm  idx="-1"  idxOne="15"  idxTwo="16"  coef="1.7859"/><qTerm  idx="-1"  idxOne="15"  idxTwo="24"  coef="1.2557"/><qTerm  idx="-1"  idxOne="15"  idxTwo="25"  coef=".7948"/><qTerm  idx="-1"  idxOne="15"  idxTwo="28"  coef="1.3629"/><qTerm  idx="-1"  idxOne="15"  idxTwo="31"  coef="1.5631"/><qTerm  idx="-1"  idxOne="15"  idxTwo="35"  coef=".4703"/><qTerm  idx="-1"  idxOne="15"  idxTwo="37"  coef="-.4271"/><qTerm  idx="-1"  idxOne="15"  idxTwo="40"  coef="-.8011"/><qTerm  idx="-1"  idxOne="15"  idxTwo="42"  coef=".4086"/><qTerm  idx="-1"  idxOne="15"  idxTwo="46"  coef="-.5918"/><qTerm  idx="-1"  idxOne="15"  idxTwo="48"  coef="-1.542"/><qTerm  idx="-1"  idxOne="16"  idxTwo="21"  coef="1.6492"/><qTerm  idx="-1"  idxOne="16"  idxTwo="23"  coef=".7186"/><qTerm  idx="-1"  idxOne="16"  idxTwo="26"  coef=".1993"/><qTerm  idx="-1"  idxOne="16"  idxTwo="31"  coef="1.7751"/><qTerm  idx="-1"  idxOne="16"  idxTwo="40"  coef="1.2144"/><qTerm  idx="-1"  idxOne="16"  idxTwo="41"  coef="1.9337"/><qTerm  idx="-1"  idxOne="16"  idxTwo="43"  coef="-.3557"/><qTerm  idx="-1"  idxOne="16"  idxTwo="47"  coef=".1751"/><qTerm  idx="-1"  idxOne="17"  idxTwo="18"  coef=".3834"/><qTerm  idx="-1"  idxOne="17"  idxTwo="29"  coef="-.9717"/><qTerm  idx="-1"  idxOne="17"  idxTwo="31"  coef="-1.6468"/><qTerm  idx="-1"  idxOne="17"  idxTwo="32"  coef="-.5563"/><qTerm  idx="-1"  idxOne="17"  idxTwo="35"  coef="1.8588"/><qTerm  idx="-1"  idxOne="17"  idxTwo="36"  coef="-1.9994"/><qTerm  idx="-1"  idxOne="17"  idxTwo="37"  coef=".1776"/><qTerm  idx="-1"  idxOne="17"  idxTwo="45"  coef="-.8859"/><qTerm  idx="-1"  idxOne="17"  idxTwo="49"  coef="-.5742"/><qTerm  idx="-1"  idxOne="18"  idxTwo="18"  coef="1.5613"/><qTerm  idx="-1"  idxOne="18"  idxTwo="20"  coef="-1.5391"/><qTerm  idx="-1"  idxOne="18"  idxTwo="26"  coef="-.9877"/><qTerm  idx="-1"  idxOne="18"  idxTwo="27"  coef="-.1625"/><qTerm  idx="-1"  idxOne="18"  idxTwo="33"  coef="-.2594"/><qTerm  idx="-1"  idxOne="18"  idxTwo="37"  coef=".8543"/><qTerm  idx="-1"  idxOne="18"  idxTwo="38"  coef="7.85e-2"/><qTerm  idx="-1"  idxOne="18"  idxTwo="40"  coef="-.8744"/><qTerm  idx="-1"  idxOne="18"  idxTwo="41"  coef="-1.4737"/><qTerm  idx="-1"  idxOne="18"  idxTwo="44"  coef="-1.9685"/><qTerm  idx="-1"  idxOne="18"  idxTwo="46"  coef="8.46e-2"/><qTerm  idx="-1"  idxOne="18"  idxTwo="47"  coef=".1286"/><qTerm  idx="-1"  idxOne="18"  idxTwo="48"  coef="-1.6775"/><qTerm  idx="-1"  idxOne="19"  idxTwo="20"  coef="-1.3662"/><qTerm  idx="-1"  idxOne="19"  idxTwo="22"  coef="-.9735"/><qTerm  idx="-1"  idxOne="19"  idxTwo="23"  coef="-1.5006"/><qTerm  idx="-1"  idxOne="19"  idxTwo="28"  coef="-1.8339"/><qTerm  idx="-1"  idxOne="19"  idxTwo="31"  coef=".6541"/><qTerm  idx="-1"  idxOne="19"  idxTwo="42"  coef="-1.8812"/><qTerm  idx="-1"  idxOne="19"  idxTwo="49"  coef="1.3251"/><qTerm  idx="-1"  idxOne="20"  idxTwo="25"  coef="-1.6868"/><qTerm  idx="-1"  idxOne="20"  idxTwo="34"  coef=".4337"/><qTerm  idx="-1"  idxOne="20"  idxTwo="40"  coef="1.1911"/><qTerm  idx="-1"  idxOne="20"  idxTwo="41"  coef="-.7984"/><qTerm  idx="-1"  idxOne="21"  idxTwo="21"  coef=".5444"/><qTerm  idx="-1"  idxOne="21"  idxTwo="25"  coef="5.8e-2"/><qTerm  idx="-1"  idxOne="21"  idxTwo="27"  coef="1.3256"/><qTerm  idx="-1"  idxOne="21"  idxTwo="31"  coef="-.4554"/><qTerm  idx="-1"  idxOne="21"  idxTwo="33"  coef="-1.0331"/><qTerm  idx="-1"  idxOne="21"  idxTwo="37"  coef="1.8719"/><qTerm  idx="-1"  idxOne="21"  idxTwo="45"  coef=".9876"/><qTerm  idx="-1"  idxOne="21"  idxTwo="47"  coef=".2169"/><qTerm  idx="-1"  idxOne="21"  idxTwo="49"  coef="-.448"/><qTerm  idx="-1"  idxOne="22"  idxTwo="24"  coef="-1.7428"/><qTerm  idx="-1"  idxOne="22"  idxTwo="30"  coef="-.6529"/><qTerm  idx="-1"  idxOne="22"  idxTwo="32"  coef="-4.87e-2"/><qTerm  idx="-1"  idxOne="22"  idxTwo="33"  coef=".2749"/><qTerm  idx="-1"  idxOne="22"  idxTwo="34"  coef="-1.1306"/><qTerm  idx="-1"  idxOne="22"  idxTwo="42"  coef=".8851"/><qTerm  idx="-1"  idxOne="22"  idxTwo="46"  coef="-1.5362"/><qTerm  idx="-1"  idxOne="23"  idxTwo="25"  coef="1.8586"/><qTerm  idx="-1"  idxOne="23"  idxTwo="29"  coef=".1901"/><qTerm  idx="-1"  idxOne="23"  idxTwo="30"  coef=".8756"/><qTerm  idx="-1"  idxOne="23"  idxTwo="35"  coef="-1.8048"/><qTerm  idx="-1"  idxOne="23"  idxTwo="38"  coef="-1.1e-3"/><qTerm  idx="-1"  idxOne="23"  idxTwo="41"  coef=".3646"/><qTerm  idx="-1"  idxOne="23"  idxTwo="45"  coef="1.4581"/><qTerm  idx="-1"  idxOne="24"  idxTwo="26"  coef="-.6427"/><qTerm  idx="-1"  idxOne="24"  idxTwo="31"  coef=".5938"/><qTerm  idx="-1"  idxOne="24"  idxTwo="34"  coef=".9974"/><qTerm  idx="-1"  idxOne="24"  idxTwo="36"  coef="-.1809"/><qTerm  idx="-1"  idxOne="24"  idxTwo="38"  coef="-3.8e-2"/><qTerm  idx="-1"  idxOne="24"  idxTwo="42"  coef=".7447"/><qTerm  idx="-1"  idxOne="24"  idxTwo="47"  coef="-5.55e-2"/><qTerm  idx="-1"  idxOne="24"  idxTwo="48"  coef="-.3289"/><qTerm  idx="-1"  idxOne="25"  idxTwo="27"  coef="-.5615"/><qTerm  idx="-1"  idxOne="25"  idxTwo="29"  coef="-.6619"/><qTerm  idx="-1"  idxOne="25"  idxTwo="31"  coef="-1.3664"/><qTerm  idx="-1"  idxOne="25"  idxTwo="32"  coef="-1.7732"/><qTerm  idx="-1"  idxOne="25"  idxTwo="35"  coef="5.23e-2"/><qTerm  idx="-1"  idxOne="25"  idxTwo="37"  coef="1.1237"/><qTerm  idx="-1"  idxOne="25"  idxTwo="38"  coef="1.3968"/><qTerm  idx="-1"  idxOne="25"  idxTwo="46"  coef="1.5452"/><qTerm  idx="-1"  idxOne="25"  idxTwo="48"  coef="-1.7737"/><qTerm  idx="-1"  idxOne="26"  idxTwo="26"  coef="1.2644"/><qTerm  idx="-1"  idxOne="26"  idxTwo="28"  coef="1.151"/><qTerm  idx="-1"  idxOne="26"  idxTwo="33"  coef=".935"/><qTerm  idx="-1"  idxOne="26"  idxTwo="35"  coef=".6043"/><qTerm  idx="-1"  idxOne="26"  idxTwo="37"  coef="-.2746"/><qTerm  idx="-1"  idxOne="26"  idxTwo="38"  coef="1.7524"/><qTerm  idx="-1"  idxOne="26"  idxTwo="39"  coef="-.897"/><qTerm  idx="-1"  idxOne="26"  idxTwo="40"  coef="-1.9232"/><qTerm  idx="-1"  idxOne="26"  idxTwo="46"  coef="1.0623"/><qTerm  idx="-1"  idxOne="26"  idxTwo="49"  coef="-1.7558"/><qTerm  idx="-1"  idxOne="27"  idxTwo="38"  coef="-1.8207"/><qTerm  idx="-1"  idxOne="27"  idxTwo="39"  coef="-1.9318"/><qTerm  idx="-1"  idxOne="27"  idxTwo="45"  coef="-1.2784"/><qTerm  idx="-1"  idxOne="27"  idxTwo="47"  coef="-1.8423"/><qTerm  idx="-1"  idxOne="28"  idxTwo="29"  coef="-.7879"/><qTerm  idx="-1"  idxOne="28"  idxTwo="30"  coef="-.2398"/><qTerm  idx="-1"  idxOne="28"  idxTwo="31"  coef="1.3238"/><qTerm  idx="-1"  idxOne="28"  idxTwo="32"  coef=".1557"/><qTerm  idx="-1"  idxOne="28"  idxTwo="36"  coef="-.5652"/><qTerm  idx="-1"  idxOne="28"  idxTwo="41"  coef=".9415"/><qTerm  idx="-1"  idxOne="28"  idxTwo="45"  coef="-2.65e-2"/><qTerm  idx="-1"  idxOne="28"  idxTwo="46"  coef=".3222"/><qTerm  idx="-1"  idxOne="29"  idxTwo="31"  coef="1.5195"/><qTerm  idx="-1"  idxOne="29"  idxTwo="39"  coef="-1.4413"/><qTerm  idx="-1"  idxOne="29"  idxTwo="40"  coef="-1.4682"/><qTerm  idx="-1"  idxOne="29"  idxTwo="44"  coef="1.8944"/><qTerm  idx="-1"  idxOne="30"  idxTwo="32"  coef=".1329"/><qTerm  idx="-1"  idxOne="30"  idxTwo="35"  coef="1.0482"/><qTerm  idx="-1"  idxOne="30"  idxTwo="38"  coef="-.9249"/><qTerm  idx="-1"  idxOne="30"  idxTwo="39"  coef="-.6819"/><qTerm  idx="-1"  idxOne="31"  idxTwo="32"  coef="-1.1315"/><qTerm  idx="-1"  idxOne="31"  idxTwo="34"  coef="-1.871"/><qTerm  idx="-1"  idxOne="31"  idxTwo="39"  coef="-.126"/><qTerm  idx="-1"  idxOne="31"  idxTwo="48"  coef=".148"/><qTerm  idx="-1"  idxOne="32"  idxTwo="45"  coef="-.8108"/><qTerm  idx="-1"  idxOne="33"  idxTwo="39"  coef="-.8416"/><qTerm  idx="-1"  idxOne="33"  idxTwo="42"  coef=".1699"/><qTerm  idx="-1"  idxOne="33"  idxTwo="44"  coef="1.9019"/><qTerm  idx="-1"  idxOne="33"  idxTwo="46"  coef="-.699"/><qTerm  idx="-1"  idxOne="33"  idxTwo="48"  coef="1.9173"/><qTerm  idx="-1"  idxOne="34"  idxTwo="34"  coef="-.5508"/><qTerm  idx="-1"  idxOne="34"  idxTwo="40"  coef="-1.0131"/><qTerm  idx="-1"  idxOne="34"  idxTwo="43"  coef="1.2428"/><qTerm  idx="-1"  idxOne="34"  idxTwo="45"  coef="-1.0154"/><qTerm  idx="-1"  idxOne="35"  idxTwo="37"  coef="1.8425"/><qTerm  idx="-1"  idxOne="35"  idxTwo="39"  coef=".5693"/><qTerm  idx="-1"  idxOne="35"  idxTwo="44"  coef="1.298"/><qTerm  idx="-1"  idxOne="35"  idxTwo="47"  coef=".5981"/><qTerm  idx="-1"  idxOne="36"  idxTwo="41"  coef="1.4939"/><qTerm  idx="-1"  idxOne="36"  idxTwo="49"  coef="-1.7681"/><qTerm  idx="-1"  idxOne="37"  idxTwo="39"  coef="-4.05e-2"/><qTerm  idx="-1"  idxOne="37"  idxTwo="40"  coef="1.9893"/><qTerm  idx="-1"  idxOne="37"  idxTwo="44"  coef="-.4918"/><qTerm  idx="-1"  idxOne="37"  idxTwo="47"  coef="-.4515"/><qTerm  idx="-1"  idxOne="38"  idxTwo="41"  coef="-1.6622"/><qTerm  idx="-1"  idxOne="39"  idxTwo="41"  coef=".1543"/><qTerm  idx="-1"  idxOne="39"  idxTwo="43"  coef="-1.0866"/><qTerm  idx="-1"  idxOne="40"  idxTwo="40"  coef="1.4572"/><qTerm  idx="-1"  idxOne="40"  idxTwo="44"  coef="-.4475"/><qTerm  idx="-1"  idxOne="40"  idxTwo="47"  coef="1.8451"/><qTerm  idx="-1"  idxOne="41"  idxTwo="43"  coef=".7696"/><qTerm  idx="-1"  idxOne="41"  idxTwo="47"  coef="1.5933"/><qTerm  idx="-1"  idxOne="42"  idxTwo="43"  coef=".4808"/><qTerm  idx="-1"  idxOne="42"  idxTwo="44"  coef="-.834"/><qTerm  idx="-1"  idxOne="42"  idxTwo="45"  coef="-1.3591"/><qTerm  idx="-1"  idxOne="42"  idxTwo="46"  coef="-.2652"/><qTerm  idx="-1"  idxOne="42"  idxTwo="48"  coef="-.9584"/><qTerm  idx="-1"  idxOne="43"  idxTwo="46"  coef="-.9832"/><qTerm  idx="-1"  idxOne="43"  idxTwo="49"  coef="-1.0704"/><qTerm  idx="-1"  idxOne="44"  idxTwo="45"  coef="-.438"/><qTerm  idx="-1"  idxOne="44"  idxTwo="46"  coef="-1.7108"/><qTerm  idx="-1"  idxOne="45"  idxTwo="46"  coef="-.2669"/><qTerm  idx="-1"  idxOne="45"  idxTwo="47"  coef="-.3918"/></quadraticCoefficients></instanceData></osil>
